
Gurobi 9.0.3 (mac64) logging started Fri Oct 30 16:06:21 2020

Gurobi Optimizer version 9.0.3 build v9.0.3rc0 (mac64)
Optimize a model with 16613 rows, 12146 columns and 60089 nonzeros
Model fingerprint: 0x49dbdf26
Coefficient statistics:
  Matrix range     [1e+00, 6e+02]
  Objective range  [1e+00, 1e+00]
  Bounds range     [1e+00, 1e+00]
  RHS range        [1e+00, 3e+00]

Concurrent LP optimizer: dual simplex and barrier
Showing barrier log only...

Presolve removed 37 rows and 1 columns
Presolve time: 0.07s
Presolved: 16576 rows, 12145 columns, 59680 nonzeros

Ordering time: 0.06s

Barrier statistics:
 AA' NZ     : 2.458e+05
 Factor NZ  : 8.328e+05 (roughly 20 MBytes of memory)
 Factor Ops : 1.007e+08 (less than 1 second per iteration)
 Threads    : 1

                  Objective                Residual
Iter       Primal          Dual         Primal    Dual     Compl     Time
   0   1.19511578e+05 -5.13169447e+04  1.19e+05 7.91e-02  8.25e+01     0s
   1   4.09794865e+04 -5.89127598e+04  3.30e+04 1.69e-01  3.34e+01     0s
   2   1.38698145e+04 -8.35007536e+04  9.49e+03 1.64e-02  7.92e+00     0s
   3   7.41070440e+03 -4.12079609e+04  3.78e+03 4.39e-04  2.56e+00     0s
   4   6.47413453e+03 -2.13390153e+04  3.07e+03 1.44e-04  1.69e+00     1s
   5   6.15384101e+03 -6.76814672e+03  2.87e+03 8.66e-06  1.48e+00     1s
   6   9.73862366e+02 -9.17055672e+03  1.85e+02 4.09e-13  3.64e-01     1s
   7   6.09789097e+02 -6.16701999e+02  1.02e+00 8.70e-14  3.77e-02     1s
   8   5.39606262e+02 -2.67122742e+02  4.74e-03 5.12e-14  2.48e-02     1s
   9   2.87630538e+02 -9.83305953e+00  1.21e-03 5.11e-15  9.14e-03     1s
  10   2.04879295e+02  7.33347240e+01  4.21e-04 6.66e-16  4.04e-03     1s
  11   1.87824881e+02  1.32598379e+02  1.80e-04 5.55e-16  1.70e-03     1s
  12   1.76005541e+02  1.48822313e+02  1.02e-04 6.66e-16  8.35e-04     1s
  13   1.68072030e+02  1.56852953e+02  4.20e-05 5.55e-16  3.45e-04     1s
  14   1.65403881e+02  1.59227485e+02  2.33e-05 5.55e-16  1.90e-04     1s
  15   1.62991554e+02  1.60441056e+02  7.95e-06 4.44e-16  7.83e-05     1s
  16   1.62424383e+02  1.60965156e+02  4.81e-06 4.44e-16  4.48e-05     2s
  17   1.62349132e+02  1.61174806e+02  4.39e-06 5.55e-16  3.61e-05     2s
  18   1.62077198e+02  1.61365965e+02  2.98e-06 5.55e-16  2.18e-05     2s
  19   1.61718690e+02  1.61422563e+02  1.10e-06 6.66e-16  9.09e-06     2s
  20   1.61658108e+02  1.61450192e+02  7.91e-07 5.55e-16  6.39e-06     2s
  21   1.61572298e+02  1.61470793e+02  3.55e-07 5.55e-16  3.12e-06     2s
  22   1.61528730e+02  1.61486243e+02  1.45e-07 5.55e-16  1.30e-06     2s
  23   1.61514007e+02  1.61494204e+02  7.34e-08 6.66e-16  6.08e-07     2s
  24   1.61504826e+02  1.61497322e+02  2.97e-08 7.77e-16  2.30e-07     2s
  25   1.61499887e+02  1.61498028e+02  6.96e-09 6.66e-16  5.71e-08     2s
  26   1.61498382e+02  1.61498309e+02  2.42e-10 5.90e-13  2.25e-09     2s
  27   1.61498368e+02  1.61498347e+02  1.03e-10 4.10e-12  6.55e-10     2s
  28   1.61498366e+02  1.61498350e+02  1.47e-10 3.32e-12  4.82e-10     2s
  29   1.61498355e+02  1.61498353e+02  3.59e-10 2.43e-12  4.87e-11     2s

Barrier solved model in 29 iterations and 2.17 seconds
Optimal objective 1.61498355e+02

Crossover log...

       0 DPushes remaining with DInf 0.0000000e+00                 2s

    6170 PPushes remaining with PInf 2.1084144e-02                 2s
       0 PPushes remaining with PInf 0.0000000e+00                 2s

  Push phase complete: Pinf 0.0000000e+00, Dinf 6.2203821e-02      2s

Iteration    Objective       Primal Inf.    Dual Inf.      Time
   10865    1.6149835e+02   0.000000e+00   6.220382e-02      2s
   11011    1.6149835e+02   0.000000e+00   0.000000e+00      3s

Solved with barrier
Solved in 11011 iterations and 2.54 seconds
Optimal objective  1.614983535e+02
